row=10;
column=10;
Board=[|3,-1,-1,5,4,-1,6,2,-1,-1|-1,7,-1,6,-1,-1,1,-1,-1,-1|-1,8,5,-1,7,4,-1,6,-1,-1|-1,-1,-1,-1,3,2,10,-1,-1,9|5,-1,7,9,-1,-1,-1,-1,6,-1|-1,-1,-1,-1,-1,-1,9,-1,3,-1|2,-1,-1,7,9,3,-1,8,4,6|10,6,3,-1,1,-1,-1,-1,-1,-1|7,-1,-1,-1,6,-1,-1,9,-1,-1|6,2,-1,-1,-1,10,-1,3,-1,-1|];
horizontal=[|-1,-1,1,-1,-1,1,-1,0,1|1,1,-1,0,1,1,-1,1,0|0,1,-1,-1,1,1,0,0,0|-1,-1,1,0,-1,-1,-1,0,-1|-1,-1,0,-1,1,1,-1,-1,1|-1,0,-1,-1,-1,0,-1,-1,0|-1,1,0,-1,1,0,-1,-1,0|-1,1,-1,1,-1,-1,1,0,0|1,-1,-1,-1,-1,0,-1,-1,-1|-1,-1,1,-1,0,-1,-1,1,-1|];
vertical=[|0,-1,-1,0,-1,-1,-1,0,-1,-1|1,0,-1,1,-1,-1,0,1,-1,0|0,1,-1,1,1,1,0,-1,1,1|-1,1,0,0,-1,-1,-1,-1,1,-1|1,-1,-1,-1,-1,1,-1,0,1,-1|1,-1,1,-1,-1,1,1,-1,0,-1|-1,-1,-1,-1,-1,-1,-1,-1,0,0|1,1,1,0,-1,1,-1,0,0,-1|-1,-1,-1,1,-1,0,0,-1,1,0|];
